<number of tasks>
20

<cycle time>
1000

<order strength>
0,258


<task times>
1 446
2 326
3 96
4 440
5 559
6 63
7 176
8 180
9 25
10 227
11 468
12 336
13 497
14 552
15 115
16 130
17 512
18 96
19 232
20 281

<precedence relations>
1,5
2,3
2,4
2,6
3,8
4,7
6,9
7,10
7,12
7,13
8,11
9,14
11,18
12,15
12,16
12,20
13,17
13,19

<end>
